
Gurobi 7.0.2 (linux64, Matlab) logging started Sun Sep  2 08:55:53 2018


Gurobi 7.0.2 (linux64) logging started Sun Sep  2 08:55:54 2018

Optimize a model with 123532 rows, 11798 columns and 298082 nonzeros
Coefficient statistics:
  Matrix range     [1e+00, 2e+00]
  Objective range  [1e+00, 1e+00]
  Bounds range     [1e+00, 1e+00]
  RHS range        [1e+00, 2e+02]
Iteration    Objective       Primal Inf.    Dual Inf.      Time
       0    0.0000000e+00   0.000000e+00   0.000000e+00      0s

Solved in 0 iterations and 0.03 seconds
Optimal objective  0.000000000e+00
